
Gurobi 7.0.2 (linux64) logging started Thu Jun  8 15:15:57 2017

Changed value of parameter logfile to result/NEIS-20170608T1453/scenario_CO2-price-0010.log
   Prev: gurobi.log  Default: 
Optimize a model with 1059933 rows, 937229 columns and 3961670 nonzeros
Coefficient statistics:
  Matrix range     [8e-04, 1e+05]
  Objective range  [1e+00, 1e+00]
  Bounds range     [0e+00, 0e+00]
  RHS range        [3e-03, 1e+05]

Concurrent LP optimizer: primal simplex, dual simplex, and barrier
Showing barrier log only...

Presolve removed 580114 rows and 635954 columns
Presolve time: 2.97s
Presolved: 479819 rows, 301275 columns, 1383529 nonzeros

Ordering time: 0.43s

Barrier statistics:
 Dense cols : 22
 AA' NZ     : 1.918e+06
 Factor NZ  : 6.933e+06 (roughly 400 MBytes of memory)
 Factor Ops : 1.616e+08 (less than 1 second per iteration)
 Threads    : 22

                  Objective                Residual
Iter       Primal          Dual         Primal    Dual     Compl     Time
   0   3.74498165e+11 -2.71538744e+11  8.79e+02 6.66e+03  2.06e+07     5s
   1   2.95597984e+11 -9.41542590e+10  6.46e+02 1.38e+04  6.75e+06     5s
   2   2.88628990e+11 -6.53671985e+10  6.37e+02 6.79e+03  5.94e+06     6s
   3   1.92879571e+11 -9.02628060e+10  4.16e+02 2.19e+02  3.94e+06     6s
   4   5.43332756e+09 -7.68499883e+10  6.04e+00 6.03e+00  1.59e+05     7s
   5   7.93928699e+08 -9.52465202e+09  5.84e-01 4.44e-06  1.60e+04     7s
   6   3.18387560e+08 -3.62136806e+09  1.34e-01 2.00e-06  5.51e+03     8s
   7   1.51577052e+08 -1.33384088e+09  1.67e-02 1.16e-06  2.00e+03     8s
   8   1.13916982e+08 -3.78303979e+08  8.49e-03 2.69e-07  6.62e+02     9s
   9   9.47527025e+07 -3.32013069e+08  5.11e-03 1.57e-07  5.73e+02     9s
  10   6.43396965e+07 -2.21534078e+08  2.54e-03 1.73e-07  3.84e+02    10s
  11   5.43167643e+07 -1.18080737e+08  1.49e-03 9.57e-08  2.31e+02    10s
  12   4.28408358e+07 -3.28855888e+07  6.35e-04 3.89e-08  1.02e+02    11s
  13   2.95393925e+07 -1.52779015e+07  2.85e-04 2.73e-08  6.01e+01    11s
  14   2.17534559e+07 -1.13179103e+07  1.58e-04 2.31e-08  4.43e+01    12s
  15   1.80545108e+07 -1.61406444e+05  1.01e-04 1.33e-08  2.44e+01    12s
  16   1.64304641e+07  3.26665335e+06  7.91e-05 6.30e-09  1.76e+01    13s
  17   1.49039151e+07  5.91964790e+06  5.82e-05 3.77e-09  1.20e+01    13s
  18   1.33511307e+07  7.64480032e+06  3.67e-05 1.06e-09  7.65e+00    14s
  19   1.29874965e+07  8.39979731e+06  3.19e-05 1.22e-09  6.15e+00    14s
  20   1.23563400e+07  9.41868620e+06  2.36e-05 3.28e-10  3.94e+00    15s
  21   1.21663712e+07  9.62593558e+06  2.06e-05 5.24e-10  3.41e+00    15s
  22   1.17542203e+07  9.89566759e+06  1.58e-05 7.71e-10  2.49e+00    16s
  23   1.14491534e+07  1.00519543e+07  1.15e-05 7.71e-10  1.87e+00    16s
  24   1.11145700e+07  1.01180152e+07  7.54e-06 6.84e-10  1.34e+00    17s
  25   1.08813763e+07  1.02201045e+07  4.76e-06 4.80e-10  8.86e-01    17s
  26   1.08420196e+07  1.02851313e+07  4.30e-06 2.91e-10  7.46e-01    18s
  27   1.08102023e+07  1.03016566e+07  3.92e-06 6.98e-10  6.82e-01    18s
  28   1.07903258e+07  1.03134399e+07  3.68e-06 7.57e-10  6.39e-01    19s
  29   1.07719597e+07  1.03271877e+07  3.46e-06 1.44e-09  5.96e-01    19s
  30   1.07445719e+07  1.03638687e+07  3.12e-06 3.35e-10  5.10e-01    20s
  31   1.07180815e+07  1.03750181e+07  2.79e-06 1.25e-09  4.60e-01    20s
  32   1.07025728e+07  1.04077555e+07  2.61e-06 2.53e-09  3.95e-01    20s
  33   1.06763552e+07  1.04156728e+07  2.31e-06 3.08e-09  3.49e-01    21s
  34   1.06619700e+07  1.04309830e+07  2.14e-06 4.31e-09  3.10e-01    22s
  35   1.06464944e+07  1.04349940e+07  1.95e-06 4.34e-09  2.83e-01    22s
  36   1.06390472e+07  1.04385772e+07  1.86e-06 4.93e-09  2.69e-01    23s
  37   1.06315573e+07  1.04425707e+07  1.77e-06 5.28e-09  2.53e-01    23s
  38   1.06203668e+07  1.04487049e+07  1.63e-06 5.64e-09  2.30e-01    23s
  39   1.06035753e+07  1.04565596e+07  1.44e-06 8.14e-09  1.97e-01    24s
  40   1.05817542e+07  1.04605849e+07  1.19e-06 7.60e-09  1.62e-01    24s
  41   1.05585855e+07  1.04636260e+07  9.19e-07 6.68e-09  1.27e-01    25s
  42   1.05472026e+07  1.04697571e+07  7.74e-07 3.45e-09  1.04e-01    26s
  43   1.05396636e+07  1.04711196e+07  6.79e-07 2.46e-09  9.19e-02    26s
  44   1.05343400e+07  1.04725060e+07  6.13e-07 3.09e-09  8.29e-02    26s
  45   1.05312609e+07  1.04729559e+07  5.74e-07 3.41e-09  7.82e-02    27s
  46   1.05284702e+07  1.04745613e+07  5.42e-07 4.16e-09  7.23e-02    27s
  47   1.05244626e+07  1.04757581e+07  4.92e-07 3.20e-09  6.53e-02    28s
  48   1.05215014e+07  1.04765806e+07  4.56e-07 2.24e-09  6.02e-02    28s
  49   1.05120483e+07  1.04776213e+07  3.46e-07 2.07e-09  4.61e-02    29s
  50   1.05107451e+07  1.04789895e+07  3.30e-07 1.76e-09  4.26e-02    30s
  51   1.05091525e+07  1.04791543e+07  3.10e-07 1.54e-09  4.02e-02    30s
  52   1.05076152e+07  1.04794700e+07  2.91e-07 1.97e-09  3.77e-02    30s
  53   1.05058642e+07  1.04799757e+07  2.70e-07 1.77e-09  3.47e-02    31s
  54   1.05033529e+07  1.04803920e+07  2.42e-07 2.73e-09  3.08e-02    31s
  55   1.05027047e+07  1.04806234e+07  2.34e-07 3.64e-09  2.96e-02    32s
  56   1.05002888e+07  1.04810391e+07  2.05e-07 4.22e-09  2.58e-02    32s
  57   1.04984631e+07  1.04815185e+07  1.84e-07 5.42e-09  2.27e-02    33s
  58   1.04975553e+07  1.04816176e+07  1.73e-07 5.86e-09  2.14e-02    34s
  59   1.04965230e+07  1.04817223e+07  1.60e-07 6.46e-09  1.98e-02    34s
  60   1.04963157e+07  1.04819453e+07  1.57e-07 6.54e-09  1.93e-02    34s
  61   1.04960509e+07  1.04820102e+07  1.54e-07 6.56e-09  1.88e-02    35s
  62   1.04947039e+07  1.04822658e+07  1.38e-07 7.03e-09  1.67e-02    35s
  63   1.04938818e+07  1.04823072e+07  1.27e-07 7.28e-09  1.55e-02    36s
  64   1.04932351e+07  1.04823888e+07  1.19e-07 7.01e-09  1.45e-02    36s
  65   1.04908921e+07  1.04825772e+07  9.01e-08 6.29e-09  1.11e-02    37s
  66   1.04905982e+07  1.04826350e+07  8.64e-08 5.87e-09  1.07e-02    38s
  67   1.04904609e+07  1.04827300e+07  8.47e-08 5.39e-09  1.04e-02    38s
  68   1.04902435e+07  1.04827533e+07  8.19e-08 5.28e-09  1.00e-02    38s
  69   1.04900028e+07  1.04827710e+07  7.88e-08 5.21e-09  9.69e-03    39s
  70   1.04896538e+07  1.04829034e+07  7.44e-08 3.93e-09  9.05e-03    39s
  71   1.04894369e+07  1.04829639e+07  7.16e-08 3.90e-09  8.68e-03    40s
  72   1.04889110e+07  1.04830391e+07  6.54e-08 3.23e-09  7.87e-03    40s
  73   1.04884833e+07  1.04830619e+07  6.04e-08 2.65e-09  7.27e-03    41s
  74   1.04883961e+07  1.04831042e+07  5.93e-08 2.09e-09  7.09e-03    42s
  75   1.04883104e+07  1.04831603e+07  5.82e-08 9.82e-10  6.90e-03    42s
  76   1.04881192e+07  1.04831990e+07  5.57e-08 3.78e-10  6.60e-03    42s
  77   1.04879238e+07  1.04832261e+07  5.32e-08 5.89e-10  6.30e-03    43s
  78   1.04875986e+07  1.04832695e+07  4.91e-08 1.82e-10  5.80e-03    43s
  79   1.04873849e+07  1.04832912e+07  4.64e-08 6.40e-10  5.49e-03    44s
  80   1.04871443e+07  1.04833598e+07  4.33e-08 1.31e-10  5.07e-03    44s
  81   1.04867216e+07  1.04833948e+07  3.83e-08 7.49e-10  4.46e-03    45s
  82   1.04865883e+07  1.04834483e+07  3.68e-08 2.04e-10  4.21e-03    46s
  83   1.04864575e+07  1.04834886e+07  3.54e-08 8.29e-10  3.98e-03    46s
  84   1.04863418e+07  1.04835161e+07  3.38e-08 1.92e-09  3.79e-03    47s
  85   1.04862208e+07  1.04835229e+07  3.22e-08 2.02e-09  3.62e-03    47s
  86   1.04859092e+07  1.04835611e+07  2.82e-08 3.35e-09  3.15e-03    48s
  87   1.04856661e+07  1.04836098e+07  2.50e-08 5.70e-09  2.76e-03    48s
  88   1.04854686e+07  1.04836368e+07  2.26e-08 2.56e-09  2.46e-03    49s
  89   1.04852266e+07  1.04836494e+07  1.92e-08 2.33e-09  2.11e-03    50s
  90   1.04851689e+07  1.04836582e+07  1.84e-08 3.30e-09  2.02e-03    50s
  91   1.04850546e+07  1.04836848e+07  1.70e-08 4.03e-09  1.84e-03    51s
  92   1.04849840e+07  1.04836877e+07  1.61e-08 3.94e-09  1.74e-03    52s
  93   1.04849001e+07  1.04836967e+07  1.50e-08 3.61e-09  1.61e-03    52s
  94   1.04848388e+07  1.04837011e+07  1.41e-08 3.39e-09  1.53e-03    53s
  95   1.04847684e+07  1.04837064e+07  1.32e-08 3.20e-09  1.42e-03    54s
  96   1.04847311e+07  1.04837089e+07  1.27e-08 3.07e-09  1.37e-03    55s
  97   1.04846732e+07  1.04837134e+07  1.20e-08 2.91e-09  1.29e-03    56s
  98   1.04846060e+07  1.04837165e+07  1.11e-08 2.11e-10  1.19e-03    56s
  99   1.04845694e+07  1.04837207e+07  1.06e-08 1.60e-10  1.14e-03    57s
 100   1.04845418e+07  1.04837242e+07  1.02e-08 4.37e-10  1.10e-03    57s
 101   1.04845011e+07  1.04837285e+07  9.71e-09 7.47e-11  1.04e-03    58s
 102   1.04844731e+07  1.04837364e+07  9.37e-09 5.24e-10  9.87e-04    59s
 103   1.04844050e+07  1.04837445e+07  8.37e-09 8.60e-09  8.85e-04    59s
 104   1.04843565e+07  1.04837473e+07  7.72e-09 7.99e-09  8.17e-04    60s
 105   1.04843468e+07  1.04837484e+07  7.59e-09 7.80e-09  8.02e-04    61s
 106   1.04842796e+07  1.04837517e+07  6.71e-09 7.20e-09  7.08e-04    62s
 107   1.04841830e+07  1.04837584e+07  5.42e-09 6.20e-09  5.69e-04    63s
 108   1.04840617e+07  1.04837641e+07  5.21e-09 5.78e-08  3.99e-04    64s
 109   1.04839945e+07  1.04837720e+07  2.58e-08 1.10e-07  2.98e-04    65s
 110   1.04839699e+07  1.04837725e+07  6.40e-08 1.02e-07  2.65e-04    65s
 111   1.04839402e+07  1.04837739e+07  5.28e-06 6.64e-08  2.23e-04    66s
 112   1.04839145e+07  1.04837758e+07  4.92e-06 9.26e-08  1.86e-04    67s
 113   1.04838664e+07  1.04837777e+07  3.06e-06 1.10e-07  1.19e-04    68s
 114   1.04838442e+07  1.04837792e+07  3.48e-06 2.49e-07  8.71e-05    68s
 115   1.04838168e+07  1.04837811e+07  1.84e-06 8.85e-08  4.79e-05    69s
 116   1.04838168e+07  1.04837811e+07  2.77e-06 8.24e-08  4.79e-05    70s
 117   1.04838135e+07  1.04837816e+07  2.47e-06 6.33e-08  4.27e-05    70s
 118   1.04838090e+07  1.04837821e+07  2.09e-06 7.71e-10  3.60e-05    71s
 119   1.04838090e+07  1.04837821e+07  4.07e-06 6.55e-10  3.60e-05    72s
 120   1.04838089e+07  1.04837821e+07  4.05e-06 5.38e-10  3.59e-05    72s
 121   1.04838089e+07  1.04837821e+07  4.05e-06 6.40e-10  3.59e-05    73s
 122   1.04838089e+07  1.04837821e+07  4.05e-06 2.04e-10  3.59e-05    74s
 123   1.04838088e+07  1.04837821e+07  4.04e-06 4.51e-10  3.58e-05    75s
 124   1.04838088e+07  1.04837821e+07  4.04e-06 7.28e-10  3.58e-05    76s
 125   6.66376779e+11 -2.71538744e+11  2.34e+03 6.66e+03  5.40e+07    77s
 126   4.97968605e+11 -3.84508934e+11  1.56e+03 4.95e+03  1.88e+07    78s
 127   8.55140627e+10 -2.50230033e+11  3.07e+01 2.05e+01  7.38e+05    80s
 128   9.26817536e+09 -6.74025256e+10  1.53e+00 8.16e-04  1.13e+05    81s
 129   6.38754635e+08 -5.17008438e+09  6.52e-02 9.55e-05  7.91e+03    82s
 130   1.43469249e+08 -2.20810553e+08  1.26e-03 7.20e-06  4.89e+02    83s
 131   1.20555869e+08 -5.69221258e+07  9.79e-04 1.54e-06  2.38e+02    83s
 132   5.74504428e+07 -3.57349012e+07  3.56e-04 1.02e-06  1.25e+02    84s
 133   4.19252019e+07 -5.46444412e+06  1.80e-04 3.45e-07  6.35e+01    85s
 134   2.63554775e+07 -9.22311992e+06  6.29e-05 3.04e-07  4.77e+01    85s
 135   2.06170257e+07  1.66437643e+06  3.47e-05 1.46e-07  2.54e+01    86s
 136   1.56155350e+07  4.00032669e+06  1.72e-05 1.07e-07  1.56e+01    86s
 137   1.45121784e+07  5.42756319e+06  1.33e-05 8.27e-08  1.22e+01    86s
 138   1.37546786e+07  6.68754999e+06  1.08e-05 6.09e-08  9.47e+00    87s
 139   1.31322744e+07  7.47830658e+06  8.71e-06 4.85e-08  7.58e+00    87s
 140   1.28462543e+07  8.12912429e+06  7.76e-06 3.70e-08  6.32e+00    88s
 141   1.27502025e+07  8.53116028e+06  7.33e-06 3.04e-08  5.66e+00    88s
 142   1.25807911e+07  8.89969263e+06  6.59e-06 2.48e-08  4.93e+00    88s
 143   1.19625292e+07  9.16817565e+06  4.62e-06 2.05e-08  3.75e+00    89s
 144   1.16693424e+07  9.40746416e+06  3.73e-06 1.66e-08  3.03e+00    89s
 145   1.13700467e+07  9.58037352e+06  2.75e-06 1.37e-08  2.40e+00    90s
 146   1.12479512e+07  9.69044877e+06  2.35e-06 1.21e-08  2.09e+00    90s
 147   1.11492694e+07  9.86448298e+06  2.04e-06 9.37e-09  1.72e+00    90s
 148   1.10823396e+07  9.97227279e+06  1.82e-06 7.61e-09  1.49e+00    91s
 149   1.09848686e+07  1.00543079e+07  1.51e-06 6.42e-09  1.25e+00    91s
 150   1.09522623e+07  1.01339413e+07  1.41e-06 5.28e-09  1.10e+00    92s
 151   1.08810342e+07  1.01829238e+07  1.19e-06 4.50e-09  9.36e-01    92s
 152   1.08321316e+07  1.02356936e+07  1.03e-06 3.70e-09  7.99e-01    92s
 153   1.07585551e+07  1.02799546e+07  8.08e-07 2.99e-09  6.41e-01    93s
 154   1.07410480e+07  1.03188329e+07  7.54e-07 2.40e-09  5.66e-01    93s
 155   1.07090151e+07  1.03398413e+07  6.57e-07 2.11e-09  4.95e-01    94s
 156   1.06697752e+07  1.03675468e+07  5.45e-07 1.67e-09  4.05e-01    94s
 157   1.06525219e+07  1.03785879e+07  4.92e-07 1.50e-09  3.67e-01    94s
 158   1.06238939e+07  1.03921203e+07  4.06e-07 1.32e-09  3.11e-01    95s
 159   1.06117610e+07  1.04037057e+07  3.69e-07 1.13e-09  2.79e-01    95s
 160   1.05876129e+07  1.04168534e+07  2.98e-07 1.79e-09  2.29e-01    96s
 161   1.05814634e+07  1.04289610e+07  2.79e-07 3.07e-09  2.04e-01    96s
 162   1.05735648e+07  1.04359692e+07  2.56e-07 3.80e-09  1.84e-01    96s
 163   1.05588904e+07  1.04433626e+07  2.13e-07 4.18e-09  1.55e-01    97s
 164   1.05511902e+07  1.04505789e+07  1.90e-07 5.66e-09  1.35e-01    97s
 165   1.05416229e+07  1.04559574e+07  1.63e-07 4.90e-09  1.15e-01    98s
 166   1.05349418e+07  1.04612480e+07  1.43e-07 4.54e-09  9.88e-02    98s
 167   1.05302720e+07  1.04649089e+07  1.30e-07 3.73e-09  8.76e-02    99s
 168   1.05263723e+07  1.04681020e+07  1.19e-07 3.09e-09  7.81e-02    99s
 169   1.05179195e+07  1.04695228e+07  9.54e-08 3.53e-09  6.49e-02    99s
 170   1.05136997e+07  1.04717245e+07  8.37e-08 2.63e-09  5.63e-02   100s
 171   1.05075314e+07  1.04732870e+07  6.65e-08 2.87e-09  4.59e-02   100s
 172   1.05044509e+07  1.04743895e+07  5.79e-08 2.27e-09  4.03e-02   101s
 173   1.05024336e+07  1.04756219e+07  5.20e-08 1.96e-09  3.59e-02   101s
 174   1.05002734e+07  1.04770327e+07  4.58e-08 2.98e-10  3.12e-02   101s
 175   1.04969133e+07  1.04781049e+07  3.61e-08 6.55e-10  2.52e-02   102s
 176   1.04943614e+07  1.04789519e+07  2.89e-08 1.10e-09  2.07e-02   102s
 177   1.04933299e+07  1.04795073e+07  2.60e-08 9.68e-10  1.85e-02   103s
 178   1.04923545e+07  1.04797535e+07  2.33e-08 1.27e-09  1.69e-02   103s
 179   1.04905648e+07  1.04802736e+07  1.83e-08 1.75e-09  1.38e-02   103s
 180   1.04897057e+07  1.04809169e+07  1.58e-08 3.19e-09  1.18e-02   104s
 181   1.04886515e+07  1.04813827e+07  1.29e-08 3.62e-09  9.74e-03   104s
 182   1.04876595e+07  1.04818918e+07  1.02e-08 2.69e-09  7.73e-03   105s
 183   1.04869755e+07  1.04822948e+07  8.34e-09 1.27e-09  6.27e-03   105s
 184   1.04866456e+07  1.04825815e+07  7.47e-09 5.38e-10  5.45e-03   105s
 185   1.04859477e+07  1.04827820e+07  5.62e-09 5.82e-10  4.24e-03   106s
 186   1.04857622e+07  1.04828878e+07  5.12e-09 5.82e-11  3.85e-03   106s
 187   1.04853440e+07  1.04830979e+07  4.09e-09 8.44e-10  3.01e-03   107s
 188   1.04852033e+07  1.04832047e+07  3.70e-09 2.91e-10  2.68e-03   107s
 189   1.04850115e+07  1.04833044e+07  3.20e-09 2.84e-10  2.29e-03   107s
 190   1.04848342e+07  1.04833372e+07  2.72e-09 3.64e-10  2.01e-03   108s
 191   1.04846436e+07  1.04834262e+07  2.23e-09 1.16e-10  1.63e-03   108s
 192   1.04845738e+07  1.04834411e+07  2.04e-09 1.16e-10  1.52e-03   109s
 193   1.04844562e+07  1.04834742e+07  1.72e-09 8.66e-10  1.32e-03   109s
 194   1.04843599e+07  1.04835458e+07  1.47e-09 2.36e-09  1.09e-03   110s
 195   1.04842364e+07  1.04835950e+07  1.16e-09 5.86e-09  8.60e-04   110s
 196   1.04841616e+07  1.04836083e+07  1.15e-09 2.66e-09  7.42e-04   111s
 197   1.04840771e+07  1.04836255e+07  7.49e-10 2.22e-09  6.05e-04   111s
 198   1.04840588e+07  1.04836545e+07  7.01e-10 1.84e-09  5.42e-04   112s
 199   1.04839562e+07  1.04837079e+07  4.39e-10 6.04e-10  3.33e-04   113s
 200   1.04839069e+07  1.04837267e+07  3.08e-10 6.84e-10  2.42e-04   113s
 201   1.04838405e+07  1.04837410e+07  5.51e-10 4.95e-10  1.33e-04   115s
 202   1.04838161e+07  1.04837565e+07  5.72e-09 2.95e-09  7.99e-05   115s
 203   1.04838097e+07  1.04837632e+07  2.13e-08 5.36e-09  6.24e-05   116s
 204   1.04838016e+07  1.04837701e+07  2.05e-07 7.83e-09  4.23e-05   117s
 205   1.04838016e+07  1.04837701e+07  6.95e-06 8.24e-09  4.23e-05   118s
 206   1.04838001e+07  1.04837717e+07  6.36e-06 7.85e-09  3.81e-05   118s
 207   1.04837975e+07  1.04837736e+07  5.30e-06 7.92e-09  3.20e-05   119s
 208   1.04837904e+07  1.04837823e+07  2.56e-06 2.70e-07  1.09e-05   119s
 209   1.04837904e+07  1.04837823e+07  2.81e-06 2.70e-07  1.09e-05   120s
 210   1.04837894e+07  1.04837825e+07  4.92e-06 2.07e-07  9.23e-06   121s
 211   1.04837855e+07  1.04837832e+07  1.32e-06 2.69e-10  3.03e-06   122s
 212   1.04837855e+07  1.04837832e+07  1.65e-06 4.07e-10  3.03e-06   122s
 213   1.04837855e+07  1.04837832e+07  2.18e-06 4.51e-10  3.03e-06   123s
 214   1.04837855e+07  1.04837832e+07  2.18e-06 2.62e-10  3.03e-06   124s
 215   1.04837855e+07  1.04837832e+07  2.18e-06 4.00e-10  3.03e-06   125s
 216   1.04837855e+07  1.04837832e+07  2.18e-06 3.64e-10  3.03e-06   126s
 217   1.04837855e+07  1.04837832e+07  2.18e-06 2.46e-10  3.03e-06   127s
 218   1.04837855e+07  1.04837832e+07  2.18e-06 7.13e-10  3.03e-06   128s
 219   1.04837855e+07  1.04837832e+07  2.18e-06 2.46e-10  3.03e-06   128s
 220   1.04837855e+07  1.04837832e+07  2.18e-06 2.91e-10  3.03e-06   129s
 221   1.04837855e+07  1.04837832e+07  2.18e-06 4.07e-10  3.03e-06   130s

Barrier performed 221 iterations in 130.29 seconds
Sub-optimal termination - objective 1.04838016e+07

Crossover log...

  211037 DPushes remaining with DInf 0.0000000e+00               131s
   77641 DPushes remaining with DInf 0.0000000e+00               136s
   76558 DPushes remaining with DInf 0.0000000e+00               140s
   75114 DPushes remaining with DInf 0.0000000e+00               146s
   74031 DPushes remaining with DInf 0.0000000e+00               150s
   72587 DPushes remaining with DInf 0.0000000e+00               156s
   71504 DPushes remaining with DInf 0.0000000e+00               161s
   70421 DPushes remaining with DInf 0.0000000e+00               165s
   68977 DPushes remaining with DInf 0.0000000e+00               171s
   67894 DPushes remaining with DInf 0.0000000e+00               176s
   66811 DPushes remaining with DInf 0.0000000e+00               181s
   65728 DPushes remaining with DInf 0.0000000e+00               185s
   64284 DPushes remaining with DInf 0.0000000e+00               191s
   63201 DPushes remaining with DInf 0.0000000e+00               196s
   62118 DPushes remaining with DInf 0.0000000e+00               201s
   51622 DPushes remaining with DInf 0.0000000e+00               205s
   45811 DPushes remaining with DInf 0.0000000e+00               210s
   40406 DPushes remaining with DInf 0.0000000e+00               216s
   37844 DPushes remaining with DInf 0.0000000e+00               221s
   35675 DPushes remaining with DInf 0.0000000e+00               225s
   30239 DPushes remaining with DInf 0.0000000e+00               230s
   25045 DPushes remaining with DInf 0.0000000e+00               235s
   18547 DPushes remaining with DInf 0.0000000e+00               240s
   13198 DPushes remaining with DInf 0.0000000e+00               245s
       0 DPushes remaining with DInf 3.2526264e-09               250s

  167685 PPushes remaining with PInf 3.7152666e-01               250s
       0 PPushes remaining with PInf 7.3712484e-03               254s

  Push phase complete: Pinf 7.3712484e-03, Dinf 2.5914970e+04    254s

Iteration    Objective       Primal Inf.    Dual Inf.      Time
  369987    1.0483784e+07   0.000000e+00   2.591497e+04    254s
  370718    1.0483784e+07   7.375449e-03   0.000000e+00    255s
  370724    1.0483784e+07   0.000000e+00   0.000000e+00    256s

Solved with barrier
Solved in 370724 iterations and 256.37 seconds
Optimal objective  1.048378398e+07
